
--- Job EmployeeScheduling.gms Start 12/03/23 15:55:22 45.2.0 e4d2ee31 WEX-WEI x86 64bit/MS Windows
--- Applying:
    C:\GAMS\45\gmsprmNT.txt
--- GAMS Parameters defined
    Input "C:\Users\rajes\Desktop\CL643 Project\EmployeeScheduling.gms"
    PageSize 0
    ScrDir "C:\Users\rajes\Desktop\CL643 Project\225a\"
    SysDir C:\GAMS\45\
    LogOption 3
    ErrMsg 1
    ErrorLog 99
    IDE 1
    LstTitleLeftAligned 1
Licensee: GAMS Demo, for EULA and demo limitations see   G230930/0001CB-GEN
          https://www.gams.com/latest/docs/UG%5FLicense.html         DC0000
          C:\GAMS\45\gamslice.txt
          Demo license for demonstration and instructional purposes only
Processor information: 1 socket(s), 4 core(s), and 8 thread(s) available
GAMS 45.2.0   Copyright (C) 1987-2023 GAMS Development. All rights reserved
--- Starting compilation
--- EmployeeScheduling.gms(77) 3 Mb
--- Starting execution: elapsed 0:00:00.013
--- EmployeeScheduling.gms(76) 4 Mb
--- Generating MIP model EmployeeScheduling
--- EmployeeScheduling.gms(77) 4 Mb
---   251 rows  127 columns  913 non-zeroes
---   126 discrete-columns
--- Range statistics (absolute non-zero finite values)
--- RHS       [min, max] : [ 1.000E+00, 5.000E+00] - Zero values observed as well
--- Bound     [min, max] : [ 1.000E+00, 1.000E+00] - Zero values observed as well
--- Matrix    [min, max] : [ 1.000E+00, 3.620E+02]
--- Executing CPLEX (Solvelink=2): elapsed 0:00:00.028

IBM ILOG CPLEX   45.2.0 e4d2ee31 Oct 30, 2023          WEI x86 64bit/MS Window

*** This solver runs with a demo license. No commercial use.

*** Error Cannot open parameter file "C:\Users\rajes\Desktop\CL643 Project\cplex.opt"
*** Error Error code = 2; No such file or directory

--- GMO setup time: 0.00s
--- GMO memory 0.54 Mb (peak 0.54 Mb)
--- Dictionary memory 0.00 Mb
--- Cplex 22.1.1.0 link memory 0.01 Mb (peak 0.03 Mb)
--- Starting Cplex

Version identifier: 22.1.1.0 | 2022-11-27 | 9160aff4d
CPXPARAM_Advance                                 0
CPXPARAM_Threads                                 1
CPXPARAM_MIP_Display                             4
CPXPARAM_MIP_Pool_Capacity                       0
CPXPARAM_MIP_Tolerances_AbsMIPGap                0
Generic callback                                 0x50
Implied bounds make row 'ShiftRequirements2(1,2)' infeasible.
Presolve time = 0.00 sec. (0.24 ticks)

Root node processing (before b&c):
  Real time             =    0.00 sec. (0.27 ticks)
Sequential b&c:
  Real time             =    0.00 sec. (0.00 ticks)
                          ------------
Total (root+branch&cut) =    0.00 sec. (0.27 ticks)

--- MIP status (103): integer infeasible.
--- Cplex Time: 0.00sec (det. 0.27 ticks)

CPLEX Error  1217: No solution exists.
--- Problem is integer infeasible
--- Reading solution for model EmployeeScheduling
*** Status: Normal completion
--- Job EmployeeScheduling.gms Stop 12/03/23 15:55:22 elapsed 0:00:00.148
